NAME          
ROWS
 N  OBJ
 L  c1
COLUMNS
    MARKER    'MARKER'                 'INTORG'
    x[1]      c1        598
    x[1]      OBJ       -444
    x[2]      c1        234
    x[2]      OBJ       -874
    x[3]      c1        225
    x[3]      OBJ       -362
    x[4]      c1        538
    x[4]      OBJ       -731
    x[5]      c1        765
    x[5]      OBJ       -2
    x[6]      c1        793
    x[6]      OBJ       -754
    x[7]      c1        388
    x[7]      OBJ       -436
    x[8]      c1        513
    x[8]      OBJ       -475
    x[9]      c1        989
    x[9]      OBJ       -983
    x[10]     c1        848
    x[10]     OBJ       -968
    x[11]     c1        176
    x[11]     OBJ       -801
    x[12]     c1        994
    x[12]     OBJ       -327
    x[13]     c1        4
    x[13]     OBJ       -684
    x[14]     c1        602
    x[14]     OBJ       -71
    x[15]     c1        499
    x[15]     OBJ       -597
    x[16]     c1        976
    x[16]     OBJ       -935
    x[17]     c1        860
    x[17]     OBJ       -240
    x[18]     c1        308
    x[18]     OBJ       -481
    x[19]     c1        620
    x[19]     OBJ       -703
    x[20]     c1        72
    x[20]     OBJ       -615
    x[21]     c1        932
    x[21]     OBJ       -596
    x[22]     c1        561
    x[22]     OBJ       -643
    x[23]     c1        235
    x[23]     OBJ       -136
    x[24]     c1        349
    x[24]     OBJ       -430
    x[25]     c1        271
    x[25]     OBJ       -517
    x[26]     c1        726
    x[26]     OBJ       -813
    x[27]     c1        788
    x[27]     OBJ       -219
    x[28]     c1        246
    x[28]     OBJ       -880
    x[29]     c1        540
    x[29]     OBJ       -519
    x[30]     c1        521
    x[30]     OBJ       -890
    x[31]     c1        861
    x[31]     OBJ       -836
    x[32]     c1        802
    x[32]     OBJ       -513
    x[33]     c1        481
    x[33]     OBJ       -94
    x[34]     c1        507
    x[34]     OBJ       -150
    x[35]     c1        653
    x[35]     OBJ       -722
    x[36]     c1        399
    x[36]     OBJ       -769
    x[37]     c1        953
    x[37]     OBJ       -166
    x[38]     c1        713
    x[38]     OBJ       -341
    x[39]     c1        906
    x[39]     OBJ       -642
    x[40]     c1        706
    x[40]     OBJ       -711
RHS
    rhs       c1        11576
RANGES
BOUNDS
 BV bounds    x[1]
 BV bounds    x[2]
 BV bounds    x[3]
 BV bounds    x[4]
 BV bounds    x[5]
 BV bounds    x[6]
 BV bounds    x[7]
 BV bounds    x[8]
 BV bounds    x[9]
 BV bounds    x[10]
 BV bounds    x[11]
 BV bounds    x[12]
 BV bounds    x[13]
 BV bounds    x[14]
 BV bounds    x[15]
 BV bounds    x[16]
 BV bounds    x[17]
 BV bounds    x[18]
 BV bounds    x[19]
 BV bounds    x[20]
 BV bounds    x[21]
 BV bounds    x[22]
 BV bounds    x[23]
 BV bounds    x[24]
 BV bounds    x[25]
 BV bounds    x[26]
 BV bounds    x[27]
 BV bounds    x[28]
 BV bounds    x[29]
 BV bounds    x[30]
 BV bounds    x[31]
 BV bounds    x[32]
 BV bounds    x[33]
 BV bounds    x[34]
 BV bounds    x[35]
 BV bounds    x[36]
 BV bounds    x[37]
 BV bounds    x[38]
 BV bounds    x[39]
 BV bounds    x[40]
ENDATA
